60.0
1 9.82 7.97
2 2.14 3.73
3 4.11 3.21
4 2.43 5.05
5 7.15 4.53
6 4.14 4.87
7 6.56 4.67
8 4.38 3.85
9 8.56 2.11
10 4.54 5.91
11 7.12 4.35
12 8.96 3.8
13 2.43 2.59
14 3.22 2.34
15 8.0 6.42
16 1.45 7.57
17 1.85 6.78
18 3.7 3.62
19 5.49 6.95
20 3.48 3.83
